
  21    0


   0  11 2 3 4 5 8 9 10 17 18 19 20 
   2   4 16 15 12 11 
   3   2 14 6 
   3   2 12 7 
   4   1 6 
   1   1 11 
   7   1 11 
   1   1 13 
  10   1 11 
  10   1 11 
   9   1 21
   9   1 21
   9   1 21
   1   1 21
   8   1 21
  10   1 21
   4   1 21
  10   1 21
   2   1 21
   1   1 21
   0   0 
